
Starting CP-SAT solver v9.15.6755
Parameters: max_time_in_seconds: 900 log_search_progress: true num_workers: 8

Initial satisfaction model '': (model_fingerprint: 0x70d1377b7f38620b)
#Variables: 12'852 (12'314 primary variables)
  - 12'460 Booleans in [0,1]
  - 392 in [0,2]
#kBoolAnd: 10'974 (#enforced: 10'974) (#literals: 32'842)
#kBoolOr: 10'894 (#enforced: 10'894) (#literals: 21'788)
#kLinear2: 2'618 (#enforced: 2'186) (#complex_domain: 742)
#kLinear3: 392
#kLinearN: 147 (#terms: 11'368)

Starting presolve at 0.01s
  4.10e-03s  0.00e+00d  [DetectDominanceRelations] 
  3.80e-02s  0.00e+00d  [PresolveToFixPoint] #num_loops=2 #num_dual_strengthening=1 
  2.28e-04s  0.00e+00d  [ExtractEncodingFromLinear] #potential_subsets=392 
  9.88e-04s  0.00e+00d  [DetectDuplicateColumns] 
  6.64e-04s  0.00e+00d  [DetectDuplicateConstraints] 
[Symmetry] Graph for symmetry has 69'757 nodes and 151'194 arcs.
[Symmetry] Symmetry computation done. time: 0.0280808 dtime: 0.063521
[SAT presolve] num removable Booleans: 782 / 13'636
[SAT presolve] num trivial clauses: 0
[SAT presolve] [0s] clauses:39'832 literals:97'236 vars:13'636 one_side_vars:0 simple_definition:10'232 singleton_clauses:0
[SAT presolve] [0.00214713s] clauses:39'832 literals:97'236 vars:13'636 one_side_vars:0 simple_definition:10'232 singleton_clauses:0
[SAT presolve] [0.00289217s] clauses:39'712 literals:96'956 vars:13'596 one_side_vars:0 simple_definition:10'232 singleton_clauses:0
  1.29e-03s  0.00e+00d  [DetectDuplicateConstraintsWithDifferentEnforcements] 
  1.95e-01s  2.00e-01d  [Probe] #probed=21'011 #fixed_bools=3'235 #new_bounds=79 #equiv=1'079 #new_binary_clauses=23'074 
  2.18e-02s  3.40e-02d  [MaxClique] Merged 22'271 constraints with 46'908 literals into 15'302 constraints with 39'927 literals
  5.22e-03s  0.00e+00d  [DetectDominanceRelations] 
  2.26e-02s  0.00e+00d  [PresolveToFixPoint] #num_loops=2 #num_dual_strengthening=1 
  3.02e-03s  0.00e+00d  [ProcessAtMostOneAndLinear] 
  9.35e-04s  0.00e+00d  [DetectDuplicateConstraints] #duplicates=71 
  7.85e-04s  0.00e+00d  [DetectDuplicateConstraintsWithDifferentEnforcements] 
  5.12e-04s  2.97e-05d  [DetectDominatedLinearConstraints] #relevant_constraints=463 #num_inclusions=2 
  3.20e-04s  0.00e+00d  [DetectDifferentVariables] 
  4.52e-03s  3.41e-04d  [ProcessSetPPC] #relevant_constraints=22'020 #num_inclusions=1'769 
  4.09e-03s  7.98e-04d  [TransformClausesToExactlyOne] #num_amos=9'172 #num_clauses=13'063 #num_transformed=18 #num_checked=13'063 
  4.35e-03s  0.00e+00d  [DetectEncodedComplexDomains] 
  3.69e-04s  0.00e+00d  [FindAlmostIdenticalLinearConstraints] 
  4.32e-03s  8.95e-03d  [FindBigAtMostOneAndLinearOverlap] 
  1.31e-03s  4.09e-03d  [FindBigVerticalLinearOverlap] 
  7.13e-04s  1.93e-03d  [FindBigHorizontalLinearOverlap] #linears=144 
  1.92e-03s  1.96e-04d  [MergeClauses] #num_collisions=22 #num_merges=22 #num_saved_literals=44 
  4.86e-03s  0.00e+00d  [DetectDominanceRelations] 
  1.65e-02s  0.00e+00d  [PresolveToFixPoint] #num_loops=1 #num_dual_strengthening=1 
  6.13e-03s  0.00e+00d  [DetectDominanceRelations] 
  1.99e-02s  0.00e+00d  [PresolveToFixPoint] #num_loops=1 #num_dual_strengthening=1 
  1.31e-03s  0.00e+00d  [DetectDuplicateColumns] 
  8.76e-04s  0.00e+00d  [DetectDuplicateConstraints] #duplicates=8 
[Symmetry] Graph for symmetry has 47'702 nodes and 91'526 arcs.
[Symmetry] Symmetry computation done. time: 0.0107446 dtime: 0.0170417
[SAT presolve] num removable Booleans: 614 / 9'282
[SAT presolve] num trivial clauses: 0
[SAT presolve] [0s] clauses:15'237 literals:43'519 vars:9'282 one_side_vars:6702 simple_definition:485 singleton_clauses:0
[SAT presolve] [0.000864314s] clauses:15'237 literals:43'514 vars:9'282 one_side_vars:6702 simple_definition:485 singleton_clauses:0
[SAT presolve] [0.00149084s] clauses:15'204 literals:43'455 vars:9'272 one_side_vars:6702 simple_definition:485 singleton_clauses:0
  1.92e-03s  0.00e+00d  [DetectDuplicateConstraintsWithDifferentEnforcements] #without_enforcements=3 
  1.74e-01s  1.40e-01d  [Probe] #probed=20'841 #fixed_bools=9 #equiv=2 #new_binary_clauses=8'298 
  1.61e-02s  3.17e-02d  [MaxClique] Merged 9'113 constraints with 26'705 literals into 8'953 constraints with 26'485 literals
  6.26e-03s  0.00e+00d  [DetectDominanceRelations] 
  2.23e-02s  0.00e+00d  [PresolveToFixPoint] #num_loops=1 #num_dual_strengthening=1 
  3.60e-03s  0.00e+00d  [ProcessAtMostOneAndLinear] 
  1.03e-03s  0.00e+00d  [DetectDuplicateConstraints] #duplicates=1 
  8.54e-04s  0.00e+00d  [DetectDuplicateConstraintsWithDifferentEnforcements] 
  6.32e-04s  2.97e-05d  [DetectDominatedLinearConstraints] #relevant_constraints=463 #num_inclusions=2 
  4.48e-04s  0.00e+00d  [DetectDifferentVariables] 
  5.28e-03s  3.45e-04d  [ProcessSetPPC] #relevant_constraints=22'078 #num_inclusions=1'755 
  4.88e-03s  7.86e-04d  [TransformClausesToExactlyOne] #num_amos=8'930 #num_clauses=13'008 #num_checked=13'008 
  4.62e-03s  0.00e+00d  [DetectEncodedComplexDomains] 
  4.64e-04s  0.00e+00d  [FindAlmostIdenticalLinearConstraints] 
  5.08e-03s  8.92e-03d  [FindBigAtMostOneAndLinearOverlap] 
  1.46e-03s  4.09e-03d  [FindBigVerticalLinearOverlap] 
  8.79e-04s  1.93e-03d  [FindBigHorizontalLinearOverlap] #linears=144 
  2.18e-03s  1.95e-04d  [MergeClauses] #num_collisions=21 #num_merges=21 #num_saved_literals=42 
  5.83e-03s  0.00e+00d  [DetectDominanceRelations] 
  1.88e-02s  0.00e+00d  [PresolveToFixPoint] #num_loops=1 #num_dual_strengthening=1 
  5.75e-03s  0.00e+00d  [DetectDominanceRelations] 
  1.88e-02s  0.00e+00d  [PresolveToFixPoint] #num_loops=1 #num_dual_strengthening=1 
  1.06e-03s  0.00e+00d  [DetectDuplicateColumns] 
  1.63e-03s  0.00e+00d  [DetectDuplicateConstraints] #duplicates=1 
[Symmetry] Graph for symmetry has 47'670 nodes and 91'001 arcs.
[Symmetry] Symmetry computation done. time: 0.00950469 dtime: 0.0171709
[SAT presolve] num removable Booleans: 587 / 9'261
[SAT presolve] num trivial clauses: 0
[SAT presolve] [0s] clauses:14'924 literals:42'857 vars:9'261 one_side_vars:6701 simple_definition:488 singleton_clauses:0
[SAT presolve] [0.000783775s] clauses:14'924 literals:42'857 vars:9'261 one_side_vars:6701 simple_definition:488 singleton_clauses:0
[SAT presolve] [0.00139856s] clauses:14'897 literals:42'781 vars:9'254 one_side_vars:6701 simple_definition:489 singleton_clauses:0
  2.19e-03s  0.00e+00d  [DetectDuplicateConstraintsWithDifferentEnforcements] 
  1.55e-01s  1.39e-01d  [Probe] #probed=20'838 #new_binary_clauses=8'107 
  1.56e-02s  3.14e-02d  [MaxClique] Merged 8'925 constraints with 26'410 literals into 8'910 constraints with 26'389 literals
  6.26e-03s  0.00e+00d  [DetectDominanceRelations] 
  2.26e-02s  0.00e+00d  [PresolveToFixPoint] #num_loops=1 #num_dual_strengthening=1 
  3.46e-03s  0.00e+00d  [ProcessAtMostOneAndLinear] 
  9.71e-04s  0.00e+00d  [DetectDuplicateConstraints] 
  8.55e-04s  0.00e+00d  [DetectDuplicateConstraintsWithDifferentEnforcements] 
  6.66e-04s  2.97e-05d  [DetectDominatedLinearConstraints] #relevant_constraints=463 #num_inclusions=2 
  5.03e-04s  0.00e+00d  [DetectDifferentVariables] 
  4.97e-03s  3.44e-04d  [ProcessSetPPC] #relevant_constraints=22'020 #num_inclusions=1'734 
  4.81e-03s  7.84e-04d  [TransformClausesToExactlyOne] #num_amos=8'922 #num_clauses=12'973 #num_checked=12'973 
  5.25e-03s  0.00e+00d  [DetectEncodedComplexDomains] 
  5.87e-04s  0.00e+00d  [FindAlmostIdenticalLinearConstraints] 
  5.20e-03s  8.95e-03d  [FindBigAtMostOneAndLinearOverlap] 
  1.59e-03s  4.09e-03d  [FindBigVerticalLinearOverlap] 
  1.00e-03s  1.93e-03d  [FindBigHorizontalLinearOverlap] #linears=144 
  2.35e-03s  1.95e-04d  [MergeClauses] #num_collisions=15 #num_merges=15 #num_saved_literals=30 
  6.00e-03s  0.00e+00d  [DetectDominanceRelations] 
  1.94e-02s  0.00e+00d  [PresolveToFixPoint] #num_loops=1 #num_dual_strengthening=1 
  4.08e-04s  0.00e+00d  [MergeNoOverlap] 
  4.27e-04s  0.00e+00d  [MergeNoOverlap2D] 

Presolve summary:
  - 1112 affine relations were detected.
  - rule 'TODO dual: only one blocking constraint?' was applied 339 times.
  - rule 'TODO linear2: contains a boolean' was applied 282 times.
  - rule 'affine: new relation' was applied 1'112 times.
  - rule 'at_most_one: empty or all false' was applied 110 times.
  - rule 'at_most_one: removed literals' was applied 3'074 times.
  - rule 'at_most_one: satisfied' was applied 3'134 times.
  - rule 'at_most_one: size one' was applied 2'878 times.
  - rule 'at_most_one: transformed into max clique' was applied 3 times.
  - rule 'bool_and: x => x' was applied 92 times.
  - rule 'bool_or: always true' was applied 4'113 times.
  - rule 'bool_or: implications' was applied 790 times.
  - rule 'bool_or: removed enforcement literal' was applied 6'681 times.
  - rule 'clauses: transformed into exactly one' was applied 18 times.
  - rule 'deductions: 3718 stored' was applied 1 time.
  - rule 'duplicate: removed constraint' was applied 81 times.
  - rule 'duplicate: removed enforced constraint' was applied 3 times.
  - rule 'enforcement: false literal' was applied 242 times.
  - rule 'enforcement: true literal' was applied 226 times.
  - rule 'linear1: transformed to implication' was applied 10 times.
  - rule 'linear2: convert ax + by != cte to clauses' was applied 1'159 times.
  - rule 'linear2: convert implied ax + by == cte to clauses' was applied 742 times.
  - rule 'linear: always true' was applied 39 times.
  - rule 'linear: empty' was applied 275 times.
  - rule 'linear: enforcement literal in expression' was applied 16 times.
  - rule 'linear: extracted at most one (max)' was applied 91 times.
  - rule 'linear: fixed or dup variables' was applied 474 times.
  - rule 'linear: remapped using affine relations' was applied 147 times.
  - rule 'new_bool: integer encoding' was applied 1'176 times.
  - rule 'presolve: 3296 unused variables removed.' was applied 1 time.
  - rule 'presolve: iteration' was applied 3 times.
  - rule 'probing: bool_or reduced to implication' was applied 2'720 times.
  - rule 'probing: simplified clauses' was applied 1 time.
  - rule 'setppc: bool_or in at_most_one' was applied 18 times.
  - rule 'setppc: removed dominated constraints' was applied 4 times.
  - rule 'variables: add encoding constraint' was applied 1'176 times.
  - rule 'variables: canonicalize domain' was applied 4 times.

Presolved satisfaction model '': (model_fingerprint: 0x9526bd37a9acd95b)
#Variables: 9'567 (9'130 primary variables)
  - 9'254 Booleans in [0,1]
  - 313 in [0,2]
#kAtMostOne: 7'022 (#literals: 22'613)
#kBoolAnd: 1'781 (#enforced: 1'781) (#literals: 3'681)
#kBoolAndClauses: 13 (#enforced: 13 #multi: 13) (#literals: 54)
#kBoolOr: 12'945 (#literals: 38'837)
#kExactlyOne: 19 (#literals: 57)
#kLinear1: 1'878 (#enforced: 1'878)
#kLinear2: 578 (#enforced: 572)
#kLinear3: 313
#kLinearN: 144 (#terms: 8'414)
[Symmetry] Graph for symmetry has 43'164 nodes and 90'875 arcs.
[Symmetry] Symmetry computation done. time: 0.00852262 dtime: 0.0169069

Preloading model.
#Model   1.06s var:9567/9567 constraints:24693/24693

Starting search at 1.06s with 8 workers.
6 full problem subsolvers: [default_lp, max_lp, no_lp, probing, quick_restart, quick_restart_no_lp]
2 first solution subsolvers: [fj, fs_random_no_lp]
2 interleaved subsolvers: [feasibility_pump, rins/rens]
2 helper subsolvers: [neighborhood_helper, synchronization_agent]

#Model   1.64s var:9495/9567 constraints:24576/24693
#Model   2.24s var:9494/9567 constraints:24575/24693
#Model   2.46s var:9493/9567 constraints:24575/24693
#Model   2.64s var:9489/9567 constraints:24572/24693
#Model   2.82s var:9488/9567 constraints:24572/24693
#Model   3.02s var:9487/9567 constraints:24572/24693
#Model   3.18s var:9485/9567 constraints:24572/24693
#Model   5.10s var:9483/9567 constraints:24572/24693
#Model   5.20s var:9467/9567 constraints:24554/24693
#Model   8.60s var:9462/9567 constraints:24535/24693
#Model   8.75s var:9461/9567 constraints:24531/24693
#Model  14.74s var:9460/9567 constraints:24529/24693
#Model  19.42s var:9438/9567 constraints:24493/24693
#Model  21.50s var:9437/9567 constraints:24490/24693
#Model  26.49s var:9436/9567 constraints:24486/24693
#Model  27.16s var:9435/9567 constraints:24483/24693
#Model  27.50s var:9433/9567 constraints:24476/24693
#Model  27.58s var:9432/9567 constraints:24472/24693
#Model  33.94s var:9430/9567 constraints:24464/24693
#Model  40.44s var:9426/9567 constraints:24448/24693
#Model  42.36s var:9425/9567 constraints:24445/24693
#Model  45.30s var:9424/9567 constraints:24442/24693
#Model  51.38s var:9419/9567 constraints:24423/24693
#Model  56.45s var:9418/9567 constraints:24422/24693
#Model  58.76s var:9416/9567 constraints:24414/24693
#Model  58.87s var:9415/9567 constraints:24410/24693
#Model  61.87s var:9414/9567 constraints:24406/24693
#Model  64.03s var:9413/9567 constraints:24403/24693
#Model  64.37s var:9411/9567 constraints:24396/24693
#Model  65.24s var:9410/9567 constraints:24396/24693
#Model  67.28s var:9408/9567 constraints:24388/24693
#Model  73.28s var:9407/9567 constraints:24388/24693
#Model  79.99s var:9405/9567 constraints:24381/24693
#Model  80.82s var:9403/9567 constraints:24373/24693
#Model 106.06s var:9402/9567 constraints:24369/24693
#Model 123.88s var:9399/9567 constraints:24357/24693
#Model 129.89s var:9398/9567 constraints:24353/24693
#Model 134.44s var:9397/9567 constraints:24350/24693
#Model 140.31s var:9396/9567 constraints:24346/24693
#Model 146.04s var:9395/9567 constraints:24342/24693
#Model 149.79s var:9388/9567 constraints:24314/24693
#Model 159.37s var:9387/9567 constraints:24310/24693
#Model 179.90s var:9385/9567 constraints:24302/24693
#Model 220.33s var:9384/9567 constraints:24298/24693
#Model 282.25s var:9383/9567 constraints:24294/24693
#Model 326.18s var:9378/9567 constraints:24274/24693
#Model 368.51s var:9377/9567 constraints:24270/24693
#Model 375.55s var:9376/9567 constraints:24266/24693
#Model 392.33s var:9374/9567 constraints:24258/24693
#Model 541.90s var:9373/9567 constraints:24254/24693
#Model 549.86s var:9371/9567 constraints:24246/24693

Task timing                      n [     min,      max]      avg      dev     time         n [     min,      max]      avg      dev    dtime
           'default_lp':         1 [  14.98m,   14.98m]   14.98m   0.00ns   14.98m         2 [158.09ms,    9.64m]    4.82m    4.82m    9.64m
     'feasibility_pump':      5193 [137.18us, 469.42ms]   4.61ms   6.97ms   23.96s      5189 [691.08us, 503.91ms] 861.23us   7.58ms    4.47s
                   'fj':      5193 [ 47.66ms, 100.31ms]  68.35ms   9.55ms    5.92m      5193 [100.01ms, 100.47ms] 100.10ms 102.80us    8.66m
      'fs_random_no_lp':         1 [  15.01m,   15.01m]   15.01m   0.00ns   15.01m         2 [157.16ms,   36.04m]   18.02m   18.02m   36.05m
               'max_lp':         1 [  14.98m,   14.98m]   14.98m   0.00ns   14.98m         2 [   1.28s,   13.43m]    6.73m    6.70m   13.45m
                'no_lp':         1 [  14.98m,   14.98m]   14.98m   0.00ns   14.98m         2 [157.16ms,   26.03m]   13.02m   13.02m   26.04m
              'probing':         1 [  14.98m,   14.98m]   14.98m   0.00ns   14.98m         2 [153.96ms,    1.81m]   54.47s   54.32s    1.82m
        'quick_restart':         1 [  14.99m,   14.99m]   14.99m   0.00ns   14.99m         2 [158.06ms,    8.50m]    4.25m    4.25m    8.51m
  'quick_restart_no_lp':         1 [  14.98m,   14.98m]   14.98m   0.00ns   14.98m         2 [157.16ms,   28.96m]   14.48m   14.48m   28.96m
            'rins/rens':      2575 [  1.65ms, 350.71ms] 201.74ms 112.46ms    8.66m      1986 [ 77.44us, 100.54ms]  63.89ms  45.13ms    2.11m

Search stats              Bools   Conflicts    Branches  Restarts  BacktrackToRoot   Backtrack     BoolPropag  IntegerPropag
           'default_lp':  9'254       5'271   1'572'108        42          586'963   1'071'966    195'597'314    181'838'674
      'fs_random_no_lp':  9'254  12'805'948  22'191'308    24'530          875'797  14'477'996  4'407'128'337  1'328'146'089
               'max_lp':  9'254      53'539   3'440'798       215        1'256'828   2'374'294    428'279'010    434'953'965
                'no_lp':  9'254  10'059'062  20'487'183    21'429        1'123'708  12'204'909  3'586'048'884  1'308'280'773
              'probing':  9'254           2      18'994         0           18'992      18'992        890'485        860'926
        'quick_restart':  9'254       5'031   1'742'447        47          657'898   1'186'421    209'847'078    195'440'888
  'quick_restart_no_lp':  9'254   2'957'427  37'608'406   273'688        1'348'101   5'508'362  2'702'618'854  1'745'172'573

SAT formula               Fixed  Equiv  Total  VarLeft  BinaryClauses  PermanentClauses  TemporaryClauses
           'default_lp':    196     94  9'254    8'964        114'786           166'579               602
      'fs_random_no_lp':    196     94  9'254    8'964        115'242           391'463            15'586
               'max_lp':    196     94  9'254    8'964        114'978           164'835            13'846
                'no_lp':    196     94  9'254    8'964        115'276           228'032            10'890
              'probing':    196      0  9'254    9'058        106'148           193'555                 0
        'quick_restart':    196     94  9'254    8'964        114'998           167'670               402
  'quick_restart_no_lp':    196     94  9'254    8'964        115'270           347'454            13'136

SAT stats                 ClassicMinim   LitRemoved  LitRemovedBinary     LitLearned   LitForgotten   Subsumed
           'default_lp':         2'104       46'282            36'281        127'049              0      3'095
      'fs_random_no_lp':     9'112'146  321'556'007       116'539'341    976'308'787    915'346'310  1'370'953
               'max_lp':        39'129      979'412           469'611      3'962'869      1'729'493      8'611
                'no_lp':     8'498'816  335'924'994       214'890'006  1'620'395'711  1'553'106'666    510'959
              'probing':             0            0                 0              2              0          0
        'quick_restart':         1'916       13'180            14'722         43'241              0      3'035
  'quick_restart_no_lp':     1'917'901   24'718'617        18'815'288    173'560'880    162'188'098    105'057

Vivification              Clauses  Decisions  LitTrue  Subsumed  LitRemoved  DecisionReused  Conflicts
           'default_lp':  276'909    773'709        1    24'524     106'078          23'911         87
      'fs_random_no_lp':  306'487  1'762'508        0    22'966     332'037         166'611      2'624
               'max_lp':  600'299  1'615'646        0    26'424     113'646          59'854        136
                'no_lp':  426'394  1'771'469        0    31'360     272'618          93'005      1'440
              'probing':        2          4        0         0           0               0          0
        'quick_restart':  355'384    908'448        0    24'795     107'065          45'994         94
  'quick_restart_no_lp':  283'922  1'367'488        3    29'680     328'653          47'374      2'715

Clause deletion           at_true  l_and_not(l)  to_binary  sub_conflict  sub_extra  sub_decisions  sub_eager  sub_vivify  sub_probing  sub_inpro  blocked  eliminated   forgotten    promoted   conflicts
           'default_lp':      262           109         63         3'095          3              7          0      24'524        2'185      4'493        0           0           0       1'260       5'271
      'fs_random_no_lp':    9'314             8        156     1'337'121    166'554          1'887     33'832      22'966        3'748     25'725        0           0  10'955'592  29'976'237  12'805'948
               'max_lp':      245            94         59         8'513        296             18         98      26'424        2'050      5'614        0           0      27'324     116'270      53'539
                'no_lp':      392            10        159       495'593     57'554            658     15'366      31'360        2'209     10'621        0           0   9'380'941  26'010'997  10'059'062
              'probing':        0             0          0             0          0              0          0           0            0          0        0           0           0           0           2
        'quick_restart':      261           106         69         3'032          2              7          3      24'795        2'199      4'690        0           0           0       1'022       5'031
  'quick_restart_no_lp':      681            15        159        99'132     17'817            621      5'925      29'680        3'445     18'963        0           0   2'516'143   5'237'698   2'957'427

Lp stats            Component  Iterations  AddedCuts  OPTIMAL  DUAL_F.  DUAL_U.
     'default_lp':          1   1'526'778     69'795   10'016      367      136
         'max_lp':          1   1'265'993    110'520      270   77'703      562
        'probing':          1     171'011     46'298    1'081       16        2
  'quick_restart':          1   1'138'979     55'784    6'017      498      169

Lp dimension             Final dimension of first component
     'default_lp':   5441 rows, 8095 columns, 25181 entries
         'max_lp':  12112 rows, 9567 columns, 42439 entries
        'probing':   6705 rows, 8095 columns, 48465 entries
  'quick_restart':   8098 rows, 8095 columns, 42867 entries

Lp debug            CutPropag  CutEqPropag  Adjust  Overflow        Bad  BadScaling
     'default_lp':          0            2     129         0  1'043'116           0
         'max_lp':          0            0     512         0  1'092'799           0
        'probing':          0            0       2         0  3'499'472           0
  'quick_restart':          0            0     159         0  1'311'093           0

Lp pool             Constraints  Updates  Simplif  Merged  Shortened  Split  Strengthened        Cuts/Call
     'default_lp':       18'489    3'247        0      19      1'422      0           237   69'795/167'513
         'max_lp':       58'411    1'661        0     313      2'922      0         3'565  110'520/300'843
        'probing':       18'009    4'946        0       2        346      0           161   46'298/177'504
  'quick_restart':       18'493    3'344        0       4      1'277      0           389   55'784/128'024

Lp Cut            default_lp  max_lp  probing  quick_restart
          CG_FF:         175     568      100            120
           CG_K:          82     148      116             50
          CG_KL:          10      44       13              5
           CG_R:         147     349      106             88
          CG_RB:         182     195      234            152
         CG_RBP:          57      59      108             63
         Clique:           -     487        -              -
             IB:      42'666   3'826    7'805         34'241
       MIR_1_FF:       3'856   5'239    4'993          3'835
        MIR_1_K:       1'170   2'136    2'090          1'158
       MIR_1_KL:         516     147    1'291            685
        MIR_1_R:         828   1'634      906            773
       MIR_1_RB:         345     737      502            276
      MIR_1_RBP:          46     100       60             50
      MIR_1_RLT:           -  32'507        -              -
       MIR_2_FF:       2'074   4'443    2'690          1'378
        MIR_2_K:         806   2'058    1'314            482
       MIR_2_KL:         163     366      321             81
        MIR_2_R:       1'514   2'229    1'495          1'311
       MIR_2_RB:         978   1'681    2'656            748
      MIR_2_RBP:         186     506    1'053            225
       MIR_3_FF:         799   3'764    1'337            501
        MIR_3_K:         396   1'173      570            276
       MIR_3_KL:          61     181      122             25
        MIR_3_R:       1'403   2'955    1'670          1'217
       MIR_3_RB:         663     972    1'502            627
      MIR_3_RBP:         214     391      567            211
       MIR_4_FF:         439   2'126      764            246
        MIR_4_K:         160     646      292             91
       MIR_4_KL:          19     118       64             12
        MIR_4_R:         948   2'300    1'111            779
       MIR_4_RB:         417     624    1'020            366
      MIR_4_RBP:         135     285      449            159
       MIR_5_FF:         255   1'103      374            142
        MIR_5_K:          70     367      107             44
       MIR_5_KL:           9      54       23              4
        MIR_5_R:         823   1'647      838            724
       MIR_5_RB:         314     420      677            241
      MIR_5_RBP:         144     229      343            122
       MIR_6_FF:         145     605      182             71
        MIR_6_K:          44     206       49             12
       MIR_6_KL:           8      33       11              3
        MIR_6_R:         654   1'251      629            584
       MIR_6_RB:         210     355      449            157
      MIR_6_RBP:         124     203      309            110
   ZERO_HALF_FF:       1'228   6'716      995            891
    ZERO_HALF_K:         125     995      262            105
   ZERO_HALF_KL:          36     214      119             16
    ZERO_HALF_R:       4'066  20'281    3'451          2'276
   ZERO_HALF_RB:          52     379      126             34
  ZERO_HALF_RBP:          33     468       33             17

LNS stats       Improv/Calls  Closed  Difficulty  TimeLimit
  'rins/rens':     2367/2367     50%    9.07e-01       0.10

LS stats                                    Batches  Restarts/Perturbs    LinMoves    GenMoves  CompoundMoves  Bactracks  WeightUpdates  ScoreComputed
                             'fj_restart':      153                 67   4'986'357           0              0          0        153'640     14'848'950
                    'fj_restart_compound':      532                 86           0  10'093'822        832'306  4'630'491          3'105    147'185'679
                'fj_restart_compound_obj':      347                 58           0   6'806'722        502'670  3'151'956          2'262     95'172'926
            'fj_restart_compound_perturb':      236                 72           0   4'129'726        451'484  1'838'975            986     66'440'166
        'fj_restart_compound_perturb_obj':      194                 65           0   3'255'753        420'846  1'417'306            711     55'123'794
                       'fj_restart_decay':      181                 72   6'618'208           0              0          0         23'246      9'627'531
              'fj_restart_decay_compound':      263                 78           0   4'649'467        770'790  1'939'178            594     74'357'495
          'fj_restart_decay_compound_obj':      435                 82           0   8'574'984      1'460'698  3'556'957            929    122'700'392
      'fj_restart_decay_compound_perturb':      299                 72           0   5'552'992        966'625  2'293'032            654     84'538'472
  'fj_restart_decay_compound_perturb_obj':      273                 87           0   4'884'123        836'406  2'023'656            624     77'349'938
                   'fj_restart_decay_obj':      558                100  20'593'947           0              0          0         70'749     29'703'935
               'fj_restart_decay_perturb':      238                 64   8'742'952           0              0          0         30'341     12'617'381
           'fj_restart_decay_perturb_obj':      243                 75   8'901'663           0              0          0         31'091     12'874'489
                         'fj_restart_obj':      380                 73  11'795'613           0              0          0        544'188     40'148'074
                     'fj_restart_perturb':      545                 88  16'793'850           0              0          0        785'234     60'032'420
                 'fj_restart_perturb_obj':      316                 75   9'891'080           0              0          0        429'137     32'529'676

Solution repositories    Added  Queried  Synchro
    'alternative_path':      0        0        0
      'best_solutions':      0        0        0
   'fj solution hints':  1'206        0    1'206
        'lp solutions':  1'016    2'575    1'016
                'pump':      0        0

Improving bounds shared    Num  Sym
       'fs_random_no_lp':   74    0
                'max_lp':    2    0
                 'no_lp':    3    0
   'quick_restart_no_lp':  120    0

Clauses shared            #Exported  #Imported  #BinaryRead  #BinaryTotal
           'default_lp':      4'958    183'800       46'911        47'202
      'fs_random_no_lp':    141'697    145'446       47'202        47'202
               'max_lp':     13'137    183'037       47'059        47'202
                'no_lp':     73'895    161'970       47'202        47'202
              'probing':          6    180'718       46'073        47'202
        'quick_restart':      4'786    185'424       47'058        47'202
  'quick_restart_no_lp':    200'784     83'825       47'202        47'202

LRAT_status: NA
CpSolverResponse summary:
status: UNKNOWN
objective: NA
best_bound: NA
integers: 8095
booleans: 9254
conflicts: 5271
branches: 1572108
propagations: 195597314
integer_propagations: 181838674
restarts: 42
lp_iterations: 1526778
walltime: 901.721
usertime: 901.721
deterministic_time: 8119.49
gap_integral: 0

status: UNKNOWN wall: 901.7 s
UNKNOWN
